
ACE v2.3 

  instance
    name:restricted_gardener

  Loading variables...

  Loading constraints...

  domains
    types:2  values:49  sizes:[6:7,7:1]
  variables
    count:8  arrays:1  degrees:[1:7,2:1]
  constraints
    count:3  specific:2  arities:[1:1,2:1,6:1]
    distribution:[AllDifferentComplete:1,Extension1:1,Intension:1]
    intStructures:(1,shared:0)
    wck:0.13  cpu:0.546  mem:14M197

  Building solver... 

  solver
    guaranteedAC:true
    wck:0.15  cpu:0.562  mem:17M131

  preprocessing
    effs:2  revisions:(2,useless=1)  values:38  removedByAC:11  unsat:false
    wck:0.0  cpu:0.562  mem:17M131

    run1  dpts:-1..7  effs:7  wck:0.00  sols:1

  global
    effs:7  revisions:(2,useless=1)
    stop:REACHED_GOAL  sols:1  sol1Cpu:0.562
    wck:0.15  cpu:0.578  mem:17M340


  Solution 1 in JSON format:
   {
    garden: [1, 2, 3, 4, 5, 6],
    number_visible_hedge: 1,
    count: 6
   }

s SATISFIABLE

v <instantiation id='sol1' type='solution'> <list> garden[] number_visible_hedge count </list> <values> 1 2 3 4 5 6   1   6 </values> </instantiation>

d WRONG DECISIONS 0
d FOUND SOLUTIONS 1
d INCOMPLETE EXPLORATION

c real time : 0.578
